175
420
279
432
342
135
176
340
204
160
120
141
180
100
301
96
490
273
84
45
315
52
246
310
432
148
52
132
165
250
80
87
460
36
200
252
310
343
228
270
450
340
153
41
60
141
148
208
301
128
100
312
224
230
350
312
210
93
96
37
189
132
330
255
80
290
188
288
150
430
64
490
114
84
315
272
104
164
60
384
222
104
308
99
350
195
232
276
105
225
294
155
343
76
81
44
340
357
80
240
188
36
26
430
320
150
351
140
270
105
260
41
124
144
74
54
264
132
300
240
29
276
72
125
168
96
98
380
56
225
136
51
369
240
376
370
208
129
165
400
390
84
276
175
156
126
62
432
342
108
220
204
459
80
290
141
36
125
387
256
392
39
196
360
245
520
164
120
192
111
260
440
297
350
240
58
276
350
25
126
186
392
342
135
315
170
51
369
180
423
216
234
387
128
450
117
168
322
280
156
287
